NAME: I4293-n24-k3
COMMENT : (Fake et al, No of trucks: 3, Optimal value: )
TYPE : CVRP
DIMENSION : 24
EDGE_WEIGHT_TYPE : EUC_2D
CAPACITY : 35
NODE_COORD_SECTION
1 257 488
2 325 97
3 949 451
4 696 150
5 133 563
6 261 326
7 138 824
8 496 749
9 566 843
10 636 618
11 639 99
12 125 972
13 703 133
14 221 211
15 963 501
16 828 295
17 663 784
18 497 76
19 999 222
20 203 781
21 653 980
22 322 33
23 617 557
24 691 724
DEMAND_SECTION
1 0
2 7
3 6
4 6
5 3
6 7
7 4
8 1
9 6
10 6
11 1
12 5
13 7
14 1
15 3
16 1
17 7
18 2
19 3
20 2
21 5
22 1
23 4
24 2
DEPOT_SECTION
 1
 -1
 EOF 